(set-logic QF_LRA)
(declare-fun X0 () Real )
(declare-fun Y0 () Real )
(declare-fun X1 () Real )
(declare-fun Y1 () Real )
(declare-fun X2 () Real )
(declare-fun Y2 () Real )
(declare-fun X3 () Real )
(declare-fun Y3 () Real )
(declare-fun X4 () Real )
(declare-fun Y4 () Real )
(declare-fun X5 () Real )
(declare-fun Y5 () Real )
(declare-fun Z () Real )
(declare-fun k () Real )
(assert (let
(( $goal (>= Z k) ))
(let
((
$phi ( and 
( or ( <= ( + X0 54 ) X1 )  ( <= ( + X1 50 ) X0 )  ( <= ( + Y0 70 ) Y1 )  ( <= ( + Y1 72 ) Y0 )  )
( or ( <= ( + X0 54 ) X2 )  ( <= ( + X2 73 ) X0 )  ( <= ( + Y0 70 ) Y2 )  ( <= ( + Y2 96 ) Y0 )  )
( or ( <= ( + X0 54 ) X3 )  ( <= ( + X3 58 ) X0 )  ( <= ( + Y0 70 ) Y3 )  ( <= ( + Y3 10 ) Y0 )  )
( or ( <= ( + X0 54 ) X4 )  ( <= ( + X4 73 ) X0 )  ( <= ( + Y0 70 ) Y4 )  ( <= ( + Y4 17 ) Y0 )  )
( or ( <= ( + X0 54 ) X5 )  ( <= ( + X5 36 ) X0 )  ( <= ( + Y0 70 ) Y5 )  ( <= ( + Y5 93 ) Y0 )  )
( or ( <= ( + X1 50 ) X2 )  ( <= ( + X2 73 ) X1 )  ( <= ( + Y1 72 ) Y2 )  ( <= ( + Y2 96 ) Y1 )  )
( or ( <= ( + X1 50 ) X3 )  ( <= ( + X3 58 ) X1 )  ( <= ( + Y1 72 ) Y3 )  ( <= ( + Y3 10 ) Y1 )  )
( or ( <= ( + X1 50 ) X4 )  ( <= ( + X4 73 ) X1 )  ( <= ( + Y1 72 ) Y4 )  ( <= ( + Y4 17 ) Y1 )  )
( or ( <= ( + X1 50 ) X5 )  ( <= ( + X5 36 ) X1 )  ( <= ( + Y1 72 ) Y5 )  ( <= ( + Y5 93 ) Y1 )  )
( or ( <= ( + X2 73 ) X3 )  ( <= ( + X3 58 ) X2 )  ( <= ( + Y2 96 ) Y3 )  ( <= ( + Y3 10 ) Y2 )  )
( or ( <= ( + X2 73 ) X4 )  ( <= ( + X4 73 ) X2 )  ( <= ( + Y2 96 ) Y4 )  ( <= ( + Y4 17 ) Y2 )  )
( or ( <= ( + X2 73 ) X5 )  ( <= ( + X5 36 ) X2 )  ( <= ( + Y2 96 ) Y5 )  ( <= ( + Y5 93 ) Y2 )  )
( or ( <= ( + X3 58 ) X4 )  ( <= ( + X4 73 ) X3 )  ( <= ( + Y3 10 ) Y4 )  ( <= ( + Y4 17 ) Y3 )  )
( or ( <= ( + X3 58 ) X5 )  ( <= ( + X5 36 ) X3 )  ( <= ( + Y3 10 ) Y5 )  ( <= ( + Y5 93 ) Y3 )  )
( or ( <= ( + X4 73 ) X5 )  ( <= ( + X5 36 ) X4 )  ( <= ( + Y4 17 ) Y5 )  ( <= ( + Y5 93 ) Y4 )  )
( >= X0 0)
( <= ( + X0 54) Z)
( >= Y0 0)
( <= ( + Y0 70 ) 122)
( >= X1 0)
( <= ( + X1 50) Z)
( >= Y1 0)
( <= ( + Y1 72 ) 122)
( >= X2 0)
( <= ( + X2 73) Z)
( >= Y2 0)
( <= ( + Y2 96 ) 122)
( >= X3 0)
( <= ( + X3 58) Z)
( >= Y3 0)
( <= ( + Y3 10 ) 122)
( >= X4 0)
( <= ( + X4 73) Z)
( >= Y4 0)
( <= ( + Y4 17 ) 122)
( >= X5 0)
( <= ( + X5 36) Z)
( >= Y5 0)
( <= ( + Y5 93 ) 122)
) )
)(=> $phi $goal))))